c [MSE2022] -- begin -- [MSE2022]
0.00/0.01	c
0.00/0.01	c NuWLS based on TT-Open-WBO-Inc:	 an Anytime MaxSAT Solver --- based on Glucose4.1 (core version)
0.00/0.01	c Version:	 MaxSAT Evaluation 2021
0.00/0.01	c Author of NuWLS:	 Yi Chu, Xiang He
0.00/0.01	c Author of TT-Open-WBO-Inc:	 Alexander Nadel
0.00/0.01	c Authors of the baseline solver Open-WBO-Inc:	 Saurabh Joshi, Prateek Kumar, Ruben Martins, Sukrut Rao
0.00/0.01	c WARNING: for repeatability, setting FPU to use double precision
0.00/0.01	c |                                                                                                       |
0.00/0.01	c ========================================[ Problem Statistics ]===========================================
0.00/0.01	c |                                                                                                       |
0.00/0.01	c |  Problem Format:             MaxSAT                                                                   |
0.00/0.01	c |  Problem Type:           Unweighted                                                                   |
0.00/0.01	c |  Number of variables:          1940                                                                   |
0.00/0.01	c |  Number of hard clauses:          0                                                                   |
0.00/0.01	c |  Number of soft clauses:      10934                                                                   |
0.00/0.01	c |  Number of cardinality:           0                                                                   |
0.00/0.01	c |  Number of PB :                   0                                                                   |
0.00/0.01	c |  Parse time:                   0.02 s                                                                 |
0.00/0.01	c |                                                                                                       |
0.00/0.01	c | best-alg-selector overriden target_vars_bump_val to 0, since it hadn't been set by the user |
0.00/0.01	c | best-alg-selector overriden ms_model_per_sec_thr to 2, since it hadn't been set by the user |
0.00/0.01	c | best-alg-selector overriden ms_mutation_classes to 0, since it hadn't been set by the user |
0.00/0.01	c | best-alg-selector overriden ms_chrono to 100, since it hadn't been set by the user |
0.00/0.01	c ==========================================[ Solver Settings ]============================================
0.00/0.01	c |                                                                                                       |
0.00/0.01	c |  Algorithm:                     OBV                                                                   |
0.00/0.01	c |  Cardinality Encoding:       Modulo Totalizer                                                         |
0.00/0.01	c |  Limit number conflicts:       1000                                                                   |
0.00/0.01	c |  Limit number iterations: 2147483647                                                                   |
0.00/0.01	c |  Global limit number conflicts:   F                                                                   |
0.00/0.01	c |                                                                                                       |
0.00/0.01	c Mrs. Beaver incomplete stage
0.00/0.01	o 1838
0.00/0.01	c total_lit_count 23808
0.00/0.01	c before build neighbor
0.00/0.01	c build instime is 0
0.00/0.01	c using neighbor 
0.00/0.01	c build NuWLS instance done!
0.00/0.01	c changing to NuWLS solver!!!
0.00/0.01	c problem weighted = 0
0.00/0.01	o 1838
0.00/0.01	o 1832
0.00/0.01	o 1828
0.00/0.01	o 1823
0.00/0.01	o 1819
0.00/0.01	o 1815
0.00/0.01	o 1811
0.00/0.01	o 1807
0.00/0.01	o 1802
0.00/0.01	o 1799
0.00/0.01	o 1795
0.00/0.01	o 1791
0.00/0.01	o 1787
0.00/0.01	o 1784
0.00/0.01	o 1781
0.00/0.01	o 1777
0.00/0.01	o 1774
0.00/0.01	o 1771
0.00/0.01	o 1768
0.00/0.01	o 1765
0.00/0.01	o 1762
0.00/0.01	o 1759
0.00/0.01	o 1756
0.00/0.01	o 1753
0.00/0.02	o 1750
0.00/0.02	o 1747
0.00/0.02	o 1744
0.00/0.02	o 1741
0.00/0.02	o 1738
0.00/0.02	o 1735
0.00/0.02	o 1732
0.00/0.02	o 1729
0.00/0.02	o 1726
0.00/0.02	o 1723
0.00/0.02	o 1720
0.00/0.02	o 1717
0.00/0.02	o 1714
0.00/0.02	o 1711
0.00/0.02	o 1708
0.00/0.02	o 1705
0.00/0.02	o 1702
0.00/0.02	o 1699
0.00/0.02	o 1696
0.00/0.02	o 1693
0.00/0.02	o 1690
0.00/0.02	o 1687
0.00/0.02	o 1684
0.00/0.02	o 1681
0.00/0.02	o 1678
0.00/0.02	o 1675
0.00/0.02	o 1672
0.00/0.02	o 1669
0.00/0.02	o 1667
0.00/0.02	o 1665
0.00/0.02	o 1662
0.00/0.02	o 1659
0.00/0.02	o 1657
0.00/0.02	o 1655
0.00/0.02	o 1652
0.00/0.02	o 1649
0.00/0.02	o 1646
0.00/0.02	o 1644
0.00/0.02	o 1642
0.00/0.02	o 1640
0.00/0.02	o 1638
0.00/0.02	o 1636
0.00/0.02	o 1634
0.00/0.02	o 1632
0.00/0.02	o 1630
0.00/0.02	o 1628
0.00/0.02	o 1626
0.00/0.02	o 1624
0.00/0.02	o 1622
0.00/0.02	o 1620
0.00/0.02	o 1618
0.00/0.02	o 1616
0.00/0.03	o 1614
0.00/0.03	o 1612
0.00/0.03	o 1610
0.00/0.03	o 1608
0.00/0.03	o 1606
0.00/0.03	o 1604
0.00/0.03	o 1602
0.00/0.03	o 1600
0.00/0.03	o 1598
0.00/0.03	o 1596
0.00/0.03	o 1594
0.00/0.03	o 1592
0.00/0.03	o 1590
0.00/0.03	o 1588
0.00/0.03	o 1586
0.00/0.03	o 1584
0.00/0.03	o 1582
0.00/0.03	o 1580
0.00/0.03	o 1578
0.00/0.03	o 1576
0.00/0.03	o 1574
0.00/0.03	o 1572
0.00/0.03	o 1570
0.00/0.03	o 1568
0.00/0.03	o 1566
0.00/0.03	o 1564
0.00/0.03	o 1561
0.00/0.03	o 1559
0.00/0.03	o 1557
0.00/0.03	o 1555
0.00/0.03	o 1553
0.00/0.03	o 1551
0.00/0.03	o 1549
0.00/0.03	o 1547
0.00/0.03	o 1545
0.00/0.03	o 1543
0.00/0.03	o 1541
0.00/0.03	o 1539
0.00/0.03	o 1537
0.00/0.03	o 1535
0.00/0.03	o 1532
0.00/0.03	o 1530
0.00/0.03	o 1528
0.00/0.03	o 1525
0.00/0.03	o 1523
0.00/0.03	o 1521
0.00/0.03	o 1519
0.00/0.03	o 1517
0.00/0.03	o 1515
0.00/0.03	o 1512
0.00/0.03	o 1510
0.00/0.04	o 1508
0.00/0.04	o 1506
0.00/0.04	o 1504
0.00/0.04	o 1502
0.00/0.04	o 1500
0.00/0.04	o 1498
0.00/0.04	o 1496
0.00/0.04	o 1494
0.00/0.04	o 1492
0.00/0.04	o 1490
0.00/0.04	o 1488
0.00/0.04	o 1486
0.00/0.04	o 1484
0.00/0.04	o 1482
0.00/0.04	o 1480
0.00/0.04	o 1478
0.00/0.04	o 1476
0.00/0.04	o 1474
0.00/0.04	o 1472
0.00/0.04	o 1470
0.00/0.04	o 1468
0.00/0.04	o 1466
0.00/0.04	o 1464
0.00/0.04	o 1462
0.00/0.04	o 1460
0.00/0.04	o 1459
0.00/0.04	o 1457
0.00/0.04	o 1455
0.00/0.04	o 1453
0.00/0.04	o 1451
0.00/0.04	o 1450
0.00/0.04	o 1449
0.00/0.04	o 1448
0.00/0.04	o 1447
0.00/0.04	o 1445
0.00/0.04	o 1444
0.00/0.04	o 1442
0.00/0.04	o 1441
0.00/0.04	o 1440
0.00/0.04	o 1439
0.00/0.04	o 1438
0.00/0.04	o 1437
0.00/0.04	o 1436
0.00/0.04	o 1435
0.00/0.04	o 1433
0.00/0.04	o 1432
0.00/0.04	o 1431
0.00/0.04	o 1430
0.00/0.04	o 1429
0.00/0.04	o 1428
0.00/0.04	o 1427
0.00/0.04	o 1426
0.00/0.04	o 1425
0.00/0.04	o 1424
0.00/0.05	o 1423
0.00/0.05	o 1422
0.00/0.05	o 1421
0.00/0.05	o 1420
0.00/0.05	o 1419
0.00/0.05	o 1417
0.00/0.05	o 1416
0.00/0.05	o 1415
0.00/0.05	o 1414
0.00/0.05	o 1413
0.00/0.05	o 1412
0.00/0.05	o 1411
0.00/0.05	o 1410
0.00/0.05	o 1409
0.00/0.05	o 1408
0.00/0.05	o 1407
0.00/0.05	o 1406
0.00/0.05	o 1404
0.00/0.05	o 1403
0.00/0.05	o 1402
0.00/0.05	o 1401
0.00/0.05	o 1400
0.00/0.05	o 1399
0.00/0.05	o 1398
0.00/0.05	o 1397
0.00/0.05	o 1396
0.00/0.05	o 1395
0.00/0.05	o 1394
0.00/0.05	o 1393
0.00/0.05	o 1392
0.00/0.05	o 1391
0.00/0.05	o 1390
0.00/0.05	o 1389
0.00/0.05	o 1388
0.00/0.05	o 1387
0.00/0.05	o 1385
0.00/0.05	o 1384
0.00/0.05	o 1382
0.00/0.05	o 1381
0.00/0.05	o 1380
0.00/0.05	o 1379
0.00/0.05	o 1378
0.00/0.05	o 1377
0.00/0.05	o 1376
0.00/0.05	o 1375
0.00/0.05	o 1374
0.00/0.05	o 1373
0.00/0.05	o 1372
0.00/0.05	o 1371
0.00/0.05	o 1370
0.00/0.05	o 1369
0.00/0.05	o 1368
0.00/0.05	o 1366
0.00/0.06	o 1365
0.00/0.06	o 1364
0.00/0.06	o 1363
0.00/0.06	o 1362
0.00/0.06	o 1360
0.00/0.06	o 1359
0.00/0.06	o 1358
0.00/0.06	o 1357
0.00/0.06	o 1356
0.00/0.06	o 1355
0.00/0.06	o 1354
0.00/0.06	o 1353
0.00/0.06	o 1352
0.00/0.06	o 1351
0.00/0.06	o 1350
0.00/0.06	o 1348
0.00/0.06	o 1347
0.00/0.06	o 1346
0.00/0.06	o 1345
0.00/0.06	o 1344
0.00/0.06	o 1343
0.00/0.06	o 1342
0.00/0.06	o 1341
0.00/0.06	o 1340
0.00/0.06	o 1339
0.00/0.06	o 1338
0.00/0.06	o 1336
0.00/0.06	o 1335
0.00/0.06	o 1334
0.00/0.06	o 1333
0.00/0.06	o 1332
0.00/0.06	o 1331
0.00/0.06	o 1330
0.00/0.06	o 1329
0.00/0.06	o 1328
0.00/0.06	o 1327
0.00/0.06	o 1325
0.00/0.06	o 1324
0.00/0.06	o 1322
0.00/0.06	o 1320
0.00/0.06	o 1319
0.00/0.06	o 1318
0.00/0.06	o 1317
0.00/0.06	o 1316
0.00/0.06	o 1315
0.00/0.06	o 1314
0.00/0.06	o 1313
0.00/0.06	o 1312
0.00/0.06	o 1310
0.00/0.06	o 1309
0.00/0.06	o 1308
0.00/0.06	o 1307
0.00/0.06	o 1306
0.00/0.06	o 1305
0.00/0.06	o 1303
0.00/0.07	o 1302
0.00/0.07	o 1301
0.00/0.07	o 1300
0.00/0.07	o 1299
0.00/0.07	o 1298
0.00/0.07	o 1297
0.00/0.07	o 1296
0.00/0.07	o 1295
0.00/0.07	o 1293
0.00/0.07	o 1292
0.00/0.07	o 1291
0.00/0.07	o 1290
0.00/0.07	o 1289
0.00/0.07	o 1288
0.00/0.07	o 1286
0.00/0.07	o 1285
0.00/0.07	o 1283
0.00/0.07	o 1282
0.00/0.07	o 1281
0.00/0.07	o 1280
0.00/0.07	o 1279
0.00/0.07	o 1278
0.00/0.07	o 1277
0.00/0.07	o 1276
0.00/0.07	o 1275
0.00/0.07	o 1274
0.00/0.07	o 1273
0.00/0.07	o 1272
0.00/0.07	o 1271
0.00/0.07	o 1270
0.00/0.07	o 1269
0.00/0.07	o 1268
0.00/0.07	o 1267
0.00/0.07	o 1266
0.00/0.07	o 1265
0.00/0.07	o 1264
0.00/0.07	o 1263
0.00/0.07	o 1262
0.00/0.07	o 1261
0.00/0.07	o 1260
0.00/0.07	o 1259
0.07/0.07	o 1258
0.07/0.07	o 1257
0.07/0.07	o 1256
0.07/0.07	o 1255
0.07/0.07	o 1254
0.07/0.07	s SATISFIABLE
0.07/0.07	o 1255 
0.07/0.07	v 01010011011101000110110110111001110011110101010110000111101111011110010001110101100110010000011000000111111010011001011110000010101000100010001100010110110000110111010010100010100110010000111111001110010000001100001110000001100010001010011101010110101101110100001001011111001101100010011010010010111101000010011000010110111110010101101001010101010010111000011110001011111001100011001000001111010101010010111001010100010011001011100100100100110101000011110101110101010011111101111100000011010011101000111000101100101101101010000010110100001100001011101010011010101000001101011101011110010100101101101000100001000011101111011011100100100000100010001100100110100010100010111100101010000000011011111110110010011011101101111110110011100100110111011001010010100111010011001111100111000001110011011000111100010100110100111100010011100100000001101001101010110111100110101000110001101101110001011000010000100001111111001100100001111111101100011011101110100101100010101001011101110110100010011010100010000101010000010101011011000111011110010110001010111110110110011001000000011001111101001110110001001101001001010010111110110110100100011101010111111000001110011011101000001111110010111001010000100111000101010110100000000001010101010111011001000001001101001011011101000000101110010011111000101110011111101101100101001101100100100010000101011011101111110100111010111110001111101010110110010101111101011010001111100011101100000011100110110000101001100011100101101101100010001001011001110011011110111101111101110101101100011100000000010011001111010001100010000010010001101111100010101100110001111111001101100101000100100001010011110011001001011110110011100000000110111100100101100101110010010101110001100010010110011100011111000011110110011010100000010011101001000001100100010001010101101010100110101111001101011010101011111010110000100111101101110110000010111011001100010010000011010110011110111111001110010000100101001100100000000101111001011111010011
c [MSE2022] -- end -- [MSE2022]
